20
 N1C2W1_A 
 120 50 0 
100
97
96
92
89
88
88
87
83
75
75
72
71
70
69
66
63
62
62
61
60
58
50
47
46
40
40
37
36
32
31
30
28
27
27
26
24
18
16
14
13
12
10
10
10
8
7
5
4
2
 N1C2W1_B 
 120 50 0 
99
96
96
96
95
95
94
90
90
88
87
84
82
78
77
77
77
75
75
70
70
69
68
56
54
53
53
50
50
49
48
47
45
38
36
35
34
28
25
21
19
18
16
13
13
7
7
6
3
3
 N1C2W1_C 
 120 50 0 
100
97
96
92
89
86
83
83
82
79
77
76
73
73
70
69
69
61
60
60
60
58
56
56
53
51
49
48
48
48
47
46
42
41
36
35
34
32
32
32
31
22
17
12
12
6
6
5
3
2
 N1C2W1_D 
 120 50 0 
98
96
96
87
87
87
86
85
83
83
82
81
77
74
67
65
64
64
63
60
57
57
56
55
50
49
46
43
43
42
37
33
31
31
27
27
26
25
23
23
19
18
15
13
10
9
6
3
2
1
 N1C2W1_E 
 120 50 0 
94
92
89
89
87
82
82
81
80
80
78
71
70
67
66
63
58
52
50
48
46
36
34
33
31
30
27
26
21
21
20
19
18
18
17
12
11
11
11
11
10
10
7
7
7
6
5
5
4
3
 N1C2W1_F 
 120 50 0 
99
95
95
94
91
90
89
84
82
81
78
78
77
73
72
69
62
60
59
58
56
56
52
52
51
48
48
47
47
45
43
42
38
32
32
31
28
28
28
26
23
21
20
18
14
12
8
3
2
1
 N1C2W1_G 
 120 50 0 
100
100
99
96
96
95
94
90
88
84
81
79
76
70
67
65
60
60
57
57
56
52
47
45
44
42
39
37
36
36
35
31
31
28
27
27
25
19
18
17
14
14
12
9
9
9
9
3
2
1
 N1C2W1_H 
 120 50 0 
99
97
94
94
90
90
87
83
82
81
79
77
76
76
75
74
72
67
66
65
63
59
59
55
51
50
50
49
47
41
41
39
38
38
37
37
35
34
33
33
21
20
18
15
14
9
8
3
1
1
 N1C2W1_I 
 120 50 0 
100
100
89
89
89
89
88
87
81
78
78
77
76
75
74
73
70
70
69
66
66
64
64
64
63
61
60
58
54
52
51
50
49
48
48
48
46
45
45
43
40
39
35
34
33
24
9
4
4
1
 N1C2W1_J 
 120 50 0 
99
98
96
96
95
92
91
89
88
87
86
84
82
82
79
79
78
77
75
72
69
66
64
63
61
60
56
55
54
54
49
49
48
44
44
44
41
41
39
27
23
22
22
21
15
13
7
5
3
1
 N1C2W1_K 
 120 50 0 
97
96
96
94
94
91
88
87
85
81
81
77
74
74
74
71
69
68
68
66
65
63
60
59
57
57
46
46
45
45
44
43
41
37
35
35
32
30
28
27
25
23
23
19
18
16
14
14
10
8
 N1C2W1_L 
 120 50 0 
98
98
98
97
97
93
92
91
90
89
89
82
82
77
76
75
74
74
73
63
62
62
61
60
56
51
49
49
47
47
45
44
43
42
39
37
33
33
32
28
25
21
20
19
11
11
6
3
2
1
 N1C2W1_M 
 120 50 0 
100
99
98
98
95
93
92
89
80
80
78
77
77
73
72
71
71
71
70
70
67
66
66
65
64
60
59
53
50
48
48
47
47
45
39
38
37
33
33
28
27
19
15
14
14
12
9
9
9
1
 N1C2W1_N 
 120 50 0 
93
87
85
85
82
79
76
75
70
70
69
69
68
67
66
64
62
61
59
58
58
57
56
56
55
53
53
49
45
45
43
42
40
30
30
24
24
22
22
21
20
18
18
14
13
11
9
9
6
3
 N1C2W1_O 
 120 50 0 
99
86
83
83
78
76
68
59
58
58
54
53
53
51
51
48
47
45
43
40
37
32
32
32
32
31
31
28
24
22
20
19
19
19
19
15
14
13
12
12
11
10
10
10
10
6
5
4
2
1
 N1C2W1_P 
 120 50 0 
97
96
94
94
93
80
79
78
77
77
76
76
72
72
71
70
67
67
63
60
59
55
54
52
51
49
48
47
46
43
34
32
28
27
27
26
25
23
22
20
17
14
13
12
12
10
5
4
3
2
 N1C2W1_Q 
 120 50 0 
98
96
95
91
91
90
88
87
83
83
77
74
73
72
72
70
70
67
66
66
63
60
59
58
58
57
56
55
54
45
45
41
31
31
29
26
24
21
18
16
16
15
14
14
9
9
8
8
6
2
 N1C2W1_R 
 120 50 0 
100
99
98
96
95
95
92
91
87
85
85
84
78
78
77
76
74
69
68
67
65
64
62
55
52
45
43
41
40
38
33
29
27
27
26
24
24
24
23
22
22
21
14
13
12
10
8
2
1
1
 N1C2W1_S 
 120 50 0 
97
93
92
90
87
83
82
82
80
80
78
78
72
71
68
67
63
62
60
59
56
56
55
54
54
51
50
48
46
45
42
41
35
32
32
28
26
25
25
25
24
22
21
21
14
12
10
9
9
7
 N1C2W1_T 
 120 50 0 
100
93
93
89
89
87
81
81
79
78
77
70
68
67
66
66
65
64
62
61
60
57
53
53
52
52
52
48
44
44
43
43
42
41
39
39
37
35
34
30
30
29
26
25
16
16
10
10
7
6
